
Gurobi 12.0.1 (win64, C++) logging started Thu Apr 17 14:19:37 2025

Set parameter TokenServer to value "141.76.38.119"
Set parameter Threads to value 8
Set parameter LazyConstraints to value 1
Set parameter PreCrush to value 1
Set parameter Seed to value 0
Set parameter Cuts to value -1
Set parameter TimeLimit to value 28800
Set parameter NumericFocus to value 0
Set parameter SolutionLimit to value 10000
Gurobi Optimizer version 12.0.1 build v12.0.1rc0 (win64 - Windows Server 2022.0 (20348.2))

CPU model: AMD EPYC 7513 32-Core Processor, instruction set [SSE2|AVX|AVX2]
Thread count: 16 physical cores, 16 logical processors, using up to 8 threads

Non-default parameters:
SolutionLimit  10000
TimeLimit  28800
PreCrush  1
Threads  8
LazyConstraints  1

Optimize a model with 235 rows, 441 columns and 1266 nonzeros
Model fingerprint: 0x947778a3
Variable types: 0 continuous, 441 integer (441 binary)
Coefficient statistics:
  Matrix range     [1e+00, 1e+00]
  Objective range  [6e+00, 6e+01]
  Bounds range     [1e+00, 1e+00]
  RHS range        [1e+00, 6e+00]

User MIP start produced solution with objective 493.362 (0.00s)
Loaded user MIP start with objective 493.362

Presolve removed 10 rows and 35 columns
Presolve time: 0.00s
Presolved: 225 rows, 406 columns, 1164 nonzeros
Variable types: 0 continuous, 406 integer (406 binary)

Root relaxation: objective 3.490889e+02, 78 iterations, 0.00 seconds (0.00 work units)

    Nodes    |    Current Node    |     Objective Bounds      |     Work
 Expl Unexpl |  Obj  Depth IntInf | Incumbent    BestBd   Gap | It/Node Time

     0     0  349.08891    0    -  493.36173  349.08891  29.2%     -    0s
     0     0  361.48864    0    -  493.36173  361.48864  26.7%     -    0s
     0     0  363.62120    0    -  493.36173  363.62120  26.3%     -    0s
     0     0  371.76545    0   22  493.36173  371.76545  24.6%     -    0s
     0     0  374.48574    0    -  493.36173  374.48574  24.1%     -    0s
     0     0  393.28254    0    8  493.36173  393.28254  20.3%     -    0s
     0     0  395.02929    0   31  493.36173  395.02929  19.9%     -    0s
     0     0  405.55566    0   26  493.36173  405.55566  17.8%     -    0s
     0     0  407.75913    0   30  493.36173  407.75913  17.4%     -    0s
H    0     0                     481.1764771  407.75913  15.3%     -    0s
     0     0  415.57256    0   29  481.17648  415.57256  13.6%     -    0s
     0     0  418.11809    0   55  481.17648  418.11809  13.1%     -    0s
     0     0  418.64646    0   26  481.17648  418.64646  13.0%     -    0s
     0     0  422.33465    0   55  481.17648  422.33465  12.2%     -    0s
     0     2  422.33465    0   55  481.17648  422.33465  12.2%     -    0s
H   79    85                     462.7587182  427.20646  7.68%  48.8    4s
    81    85  435.22032   12   47  462.75872  427.20646  7.68%  49.9    5s
H   82    85                     454.4246197  427.20646  5.99%  49.3    5s
*   86    97              10     430.8846754  427.20646  0.85%  49.5    5s

Cutting planes:
  Lazy constraints: 1729

Explored 180 nodes (5696 simplex iterations) in 6.09 seconds (0.52 work units)
Thread count was 8 (of 16 available processors)

Solution count 5: 430.885 454.425 462.759 ... 493.362

Optimal solution found (tolerance 1.00e-04)
Best objective 4.308846754242e+02, best bound 4.308846754242e+02, gap 0.0000%

User-callback calls 748, time in user-callback 5.29 sec
### START EXACT APPROACH ###
ProblemVariant: 1
### START PREPROCESSING ###
## Start infeasible path procedure ## 
Deleted arcs: 14
Infeasible tail paths: 3
Infeasible 2-node combinations: 7
## Start extended infeasible path procedure ##
Deleted arcs: 14
Infeasible tail paths: 3
Infeasible 2-node combinations: 7
## Start start solution procedure ##
Start solution with 6 Vehicles and total costs 493.362 in 0.0345136 s.
### END PREPROCESSING ###
Route 0 0-1-2-0 : weight util 0.827586 | volume util 0.277467 | feasible with packing heuristic | feasible with CP model
Route 1 0-6-19-11-20-5-0 : weight util 1.000000 | volume util 0.541422 | infeasible with packing heuristic | feasible with CP model
Route 2 0-7-9-3-4-0 : weight util 0.965517 | volume util 0.385956 | feasible with packing heuristic | feasible with CP model
Route 3 0-12-10-18-16-0 : weight util 0.982759 | volume util 0.250267 | feasible with packing heuristic | feasible with CP model
Route 4 0-13-14-15-0 : weight util 0.931034 | volume util 0.663778 | feasible with packing heuristic | feasible with CP model
Route 5 0-17-8-0 : weight util 0.965517 | volume util 0.092444 | feasible with packing heuristic | feasible with CP model
